c 64_3_checker_6cl.cnf
c
c field = 64
c formula set type = 3_checker_6cl
c
p cnf 6 42
122 
124 
128 
-131 
-120 
-132 
123 
125 
129 
-130 
-121 
-133 
124 
128 
130 
-123 
-120 
-132 
125 
129 
131 
-122 
-121 
-133 
124 
128 
130 
-133 
-122 
-134 
125 
129 
131 
-132 
-123 
-135 
128 
130 
132 
-125 
-122 
-134 
129 
131 
133 
-124 
-123 
-135 
128 
130 
132 
-135 
-124 
-136 
129 
131 
133 
-134 
-125 
-137 
36 
66 
96 
-157 
-6 
-186 
37 
67 
97 
-156 
-7 
-187 
66 
96 
156 
-37 
-6 
-186 
67 
97 
157 
-36 
-7 
-187 
66 
96 
156 
-187 
-36 
-216 
67 
97 
157 
-186 
-37 
-217 
96 
156 
186 
-67 
-36 
-216 
97 
157 
187 
-66 
-37 
-217 
96 
156 
186 
-217 
-66 
-246 
97 
157 
187 
-216 
-67 
-247 
156 
186 
216 
-97 
-66 
-246 
157 
187 
217 
-96 
-67 
-247 
156 
186 
216 
-247 
-96 
-276 
157 
187 
217 
-246 
-97 
-277 
62 
94 
158 
-191 
-30 
-222 
63 
95 
159 
-190 
-31 
-223 
94 
158 
190 
-63 
-30 
-222 
95 
159 
191 
-62 
-31 
-223 
94 
158 
190 
-223 
-62 
-254 
95 
159 
191 
-222 
-63 
-255 
158 
190 
222 
-95 
-62 
-254 
159 
191 
223 
-94 
-63 
-255 
158 
190 
222 
-255 
-94 
-286 
159 
191 
223 
-254 
-95 
-287 
42 
70 
98 
-155 
-14 
-182 
43 
71 
99 
-154 
-15 
-183 
70 
98 
154 
-43 
-14 
-182 
71 
99 
155 
-42 
-15 
-183 
70 
98 
154 
-183 
-42 
-210 
71 
99 
155 
-182 
-43 
-211 
98 
154 
182 
-71 
-42 
-210 
99 
155 
183 
-70 
-43 
-211 
